
Gurobi 6.5.2 (win64) logging started 07/24/16 17:26:11


Gurobi 6.5.2 (win64) logging started 07/24/16 17:26:11

Optimize a model with 1486 rows, 552 columns and 3958 nonzeros
Coefficient statistics:
  Matrix range    [6e-08, 1e+03]
  Objective range [1e+00, 1e+00]
  Bounds range    [1e+00, 1e+00]
  RHS range       [6e-06, 1e+03]
Presolve removed 1307 rows and 362 columns
Presolve time: 0.00s
Presolved: 179 rows, 190 columns, 803 nonzeros
Variable types: 190 continuous, 0 integer (0 binary)

Root relaxation: objective 1.603272e+01, 196 iterations, 0.00 seconds

    Nodes    |    Current Node    |     Objective Bounds      |     Work
 Expl Unexpl |  Obj  Depth IntInf | Incumbent    BestBd   Gap | It/Node Time

*    0     0               0      16.0327205   16.03272  0.00%     -    0s

Explored 0 nodes (196 simplex iterations) in 0.00 seconds
Thread count was 8 (of 8 available processors)

Optimal solution found (tolerance 1.00e-04)
Best objective 1.603272053939e+01, best bound 1.603272053939e+01, gap 0.0%

Wrote requested result file 'H1\instance8\\Results8EC_Sol2.lp'

